4 11 50 1 2
0 200
 1 40.00 50.00 0.00 0.00 0.00 0 0 0 240
 2 25.00 85.00 10.00 20.00 20.00 1 1 1 0 191
 3 22.00 75.00 10.00 30.00 20.00 1 1 1 0 199
 4 22.00 85.00 10.00 10.00 30.00 1 1 1 0 190
 5 20.00 80.00 10.00 40.00 10.00 1 1 1 141 171
 6 20.00 85.00 10.00 20.00 20.00 1 1 1 0 189
 7 18.00 75.00 10.00 20.00 30.00 1 1 1 95 125
 8 15.00 75.00 10.00 20.00 30.00 1 1 1 0 194
 9 15.00 80.00 10.00 10.00 30.00 1 1 1 91 121
 10 10.00 35.00 10.00 20.00 10.00 1 1 1 91 121
 11 10.00 40.00 10.00 30.00 20.00 1 1 1 119 149
 12 8.00 40.00 10.00 40.00 40.00 1 1 1 59 89
 13 8.00 45.00 10.00 20.00 10.00 1 1 1 0 197
 14 5.00 35.00 10.00 10.00 40.00 1 1 1 142 172
 15 5.00 45.00 10.00 10.00 20.00 1 1 1 0 194
 16 2.00 40.00 10.00 20.00 30.00 1 1 1 58 88
 17 0.00 40.00 10.00 20.00 40.00 1 1 1 0 188
 18 0.00 45.00 10.00 20.00 10.00 1 1 1 149 179
 19 44.00 5.00 10.00 20.00 20.00 1 1 1 0 184
 20 42.00 10.00 10.00 40.00 10.00 1 1 1 0 189
 21 42.00 15.00 10.00 10.00 20.00 1 1 1 0 194
 22 40.00 5.00 10.00 10.00 20.00 1 1 1 0 185
 23 40.00 15.00 10.00 40.00 20.00 1 1 1 92 122
 24 38.00 5.00 10.00 30.00 40.00 1 1 1 65 95
 25 38.00 15.00 10.00 10.00 30.00 1 1 1 0 194
 26 35.00 5.00 10.00 20.00 10.00 1 1 1 154 184
 27 95.00 30.00 10.00 30.00 10.00 1 1 1 0 171
 28 95.00 35.00 10.00 20.00 20.00 1 1 1 62 92
 29 92.00 30.00 10.00 10.00 10.00 1 1 1 0 174
 30 90.00 35.00 10.00 10.00 20.00 1 1 1 0 177
 31 88.00 30.00 10.00 10.00 10.00 1 1 1 74 104
 32 88.00 35.00 10.00 20.00 10.00 1 1 1 0 179
 33 87.00 30.00 10.00 10.00 10.00 1 1 1 0 178
 34 85.00 25.00 10.00 10.00 10.00 1 1 1 51 81
 35 85.00 35.00 10.00 30.00 20.00 1 1 1 0 182
 36 67.00 85.00 10.00 20.00 20.00 1 1 1 139 169
 37 65.00 85.00 10.00 40.00 10.00 1 1 1 43 73
 38 65.00 82.00 10.00 10.00 10.00 1 1 1 0 189
 39 62.00 80.00 10.00 30.00 30.00 1 1 1 75 105
 40 60.00 80.00 10.00 10.00 10.00 1 1 1 37 67
 41 60.00 85.00 10.00 30.00 40.00 1 1 1 85 115
 42 58.00 75.00 10.00 20.00 20.00 1 1 1 92 122
 43 55.00 80.00 10.00 10.00 10.00 1 1 1 33 63
 44 55.00 85.00 10.00 20.00 10.00 1 1 1 0 191
 45 55.00 82.00 10.00 10.00 10.00 1 1 1 64 94
 46 20.00 82.00 10.00 10.00 20.00 1 1 1 37 67
 47 18.00 80.00 10.00 10.00 30.00 1 1 1 0 192
 48 2.00 45.00 10.00 10.00 20.00 1 1 1 0 191
 49 42.00 5.00 10.00 10.00 10.00 1 1 1 0 184
 50 42.00 12.00 10.00 10.00 10.00 1 1 1 104 134
 51 72.00 35.00 10.00 30.00 10.00 1 1 1 0 194
